% File represents an instance of a Composite Structure problem to be solved by a CP framework
% Created on 2025-03-26 10:41:27.318
T = 50;
n = 16;
m = 24;
edges = [(1, 2),
(5, 6),
(9, 10),
(13, 14),
(2, 3),
(6, 7),
(10, 11),
(14, 15),
(3, 4),
(7, 8),
(11, 12),
(15, 16),
(5, 1),
(9, 5),
(13, 9),
(6, 2),
(10, 6),
(14, 10),
(7, 3),
(11, 7),
(15, 11),
(8, 4),
(12, 8),
(16, 12)];
counts = [|10, 8, 10, 8,
|10, 4, 10, 6,
|8, 4, 8, 4,
|6, 2, 6, 4,
|10, 10, 10, 8,
|10, 4, 10, 8,
|10, 4, 10, 4,
|8, 4, 8, 4,
|10, 12, 10, 12,
|10, 10, 10, 8,
|10, 8, 10, 4,
|10, 6, 10, 4,
|10, 16, 10, 14,
|10, 14, 10, 10,
|10, 10, 10, 8,
|10, 10, 10, 4|];
